171	32	4	83	
10	10	10	10

0	0	0	0	0	0	5	1	2	3	7	8
1	0	1	1	1	4	3	9	6	4
2	1	0	5	2	2	2	12	5
3	0	4	3	2	5	6	24	19	17	15	14	13
4	5	5	0	4	10	4	24	18	13	11
5	2	4	5	0	5	3	15	14	9
6	4	5	0	7	7	3	24	15	10
7	2	3	3	0	7	4	30	24	19	11
8	4	2	0	5	10	3	30	18	10
9	4	0	1	4	2	6	30	24	21	18	17	16
10	2	0	4	2	3	1	11
11	5	0	2	2	7	2	17	14
12	2	0	3	4	5	6	30	29	26	24	23	20
13	6	6	4	0	1	5	30	29	23	21	20
14	3	6	4	0	1	2	21	16
15	0	7	5	5	7	2	21	18
16	5	5	7	0	7	5	29	27	26	23	20
17	5	5	5	0	6	4	27	26	23	20
18	4	5	5	0	8	4	29	26	23	20
19	0	3	6	8	7	3	29	22	21
20	0	5	4	6	6	2	28	22
21	5	0	2	3	10	2	27	26
22	0	4	3	4	10	1	25
23	0	4	4	7	7	1	25
24	5	2	4	0	4	1	27
25	0	3	2	6	9	1	31
26	5	2	6	0	9	1	31
27	0	5	8	3	3	1	31
28	6	3	0	5	2	1	31
29	5	4	0	1	5	1	31
30	0	3	4	3	2	1	31
31	0	0	0	0	0	0
